[runlim] version:		2.0.0rc12
[runlim] host:			ap-Precision-7550
[runlim] time limit:		311040000 seconds
[runlim] real time limit:	600 seconds
[runlim] space limit:		14000 MB
[runlim] argv[0]:		python3
[runlim] argv[1]:		-u
[runlim] argv[2]:		mip.py
[runlim] argv[3]:		scen03
[runlim] start:			Thu Mar 26 05:35:16 2026
[runlim] child:			32432
--- Building MIP model for 400 variables ---
--- Solving with CPLEX MIP ---
Version identifier: 22.1.1.0 | 2022-11-28 | 9160aff4d
CPXPARAM_Read_DataCheck                          1
CPXPARAM_MIP_Tolerances_MIPGap                   0
Legacy callback                                  i
Tried aggregator 2 times.
MIP Presolve eliminated 348434 rows and 0 columns.
MIP Presolve modified 48227 coefficients.
Aggregator did 1 substitutions.
Reduced MIP has 56798 rows, 15939 columns, and 474116 nonzeros.
Reduced MIP has 15939 binaries, 0 generals, 0 SOSs, and 0 indicators.
Presolve time = 1.48 sec. (1607.25 ticks)
Found incumbent of value 48.000000 after 2.19 sec. (2531.24 ticks)
Probing changed sense of 7946 constraints.
Probing time = 0.08 sec. (21.89 ticks)
Tried aggregator 1 time.
MIP Presolve eliminated 21805 rows and 7962 columns.
MIP Presolve modified 25671 coefficients.
Reduced MIP has 34993 rows, 7977 columns, and 399253 nonzeros.
Reduced MIP has 7977 binaries, 0 generals, 0 SOSs, and 0 indicators.
Presolve time = 1.56 sec. (1673.85 ticks)
Probing time = 0.02 sec. (4.10 ticks)
Tried aggregator 2 times.
Detecting symmetries...
MIP Presolve eliminated 1 rows and 0 columns.
Aggregator did 2 substitutions.
Reduced MIP has 34990 rows, 7974 columns, and 399247 nonzeros.
Reduced MIP has 7974 binaries, 0 generals, 0 SOSs, and 0 indicators.
Presolve time = 0.48 sec. (548.03 ticks)
Probing time = 0.02 sec. (4.11 ticks)
Clique table members: 34989.
MIP emphasis: balance optimality and feasibility.
MIP search method: dynamic search.
Parallel mode: deterministic, using up to 12 threads.
[runlim] sample:		29.11 time, 10.01 real, 481 MB, 9.67 load
Root relaxation solution time = 4.40 sec. (1907.19 ticks)

        Nodes                                         Cuts/
   Node  Left     Objective  IInf  Best Integer    Best Bound    ItCnt     Gap

*     0+    0                           48.0000        0.0000           100.00%
*     0+    0                           20.0000        0.0000           100.00%
*     0+    0                           18.0000        0.0000           100.00%
      0     0       12.0000  1532       18.0000       12.0000       21   33.33%

Num labels used: 18
Current incumbent solution: {16, 30, 58, 100, 142, 254, 268, 296, 338, 380, 414, 456, 484, 554, 652, 694, 722, 792}}
Time taken: 10.57s

Num labels used: 18
Current incumbent solution: {16, 30, 58, 100, 142, 254, 268, 296, 338, 380, 414, 456, 484, 554, 652, 694, 722, 792}}
Time taken: 10.58s
[runlim] sample:		49.09 time, 20.01 real, 521 MB, 8.49 load
[runlim] sample:		69.09 time, 30.01 real, 530 MB, 7.49 load
[runlim] sample:		89.08 time, 40.01 real, 530 MB, 6.73 load
[runlim] sample:		109.08 time, 50.01 real, 530 MB, 6.23 load
[runlim] sample:		129.07 time, 60.01 real, 530 MB, 5.58 load
[runlim] sample:		149.07 time, 70.01 real, 530 MB, 5.03 load
[runlim] sample:		169.06 time, 80.01 real, 530 MB, 4.56 load
[runlim] sample:		189.06 time, 90.01 real, 530 MB, 4.24 load
[runlim] sample:		209.05 time, 100.01 real, 530 MB, 3.90 load
[runlim] sample:		229.05 time, 110.01 real, 530 MB, 3.68 load
[runlim] sample:		249.05 time, 120.01 real, 530 MB, 3.42 load
[runlim] sample:		269.04 time, 130.01 real, 530 MB, 3.28 load
[runlim] sample:		289.04 time, 140.01 real, 530 MB, 3.08 load
[runlim] sample:		309.03 time, 150.01 real, 530 MB, 2.99 load
[runlim] sample:		329.03 time, 160.01 real, 530 MB, 2.83 load
[runlim] sample:		349.03 time, 170.01 real, 530 MB, 2.78 load
[runlim] sample:		369.02 time, 180.01 real, 530 MB, 2.66 load
[runlim] sample:		389.02 time, 190.01 real, 530 MB, 2.63 load
[runlim] sample:		409.01 time, 200.01 real, 530 MB, 2.53 load
[runlim] sample:		429.01 time, 210.01 real, 530 MB, 2.45 load
[runlim] sample:		449.01 time, 220.01 real, 530 MB, 2.38 load
[runlim] sample:		469.00 time, 230.01 real, 530 MB, 2.32 load
[runlim] sample:		489.00 time, 240.01 real, 530 MB, 2.27 load
[runlim] sample:		509.00 time, 250.01 real, 530 MB, 2.23 load
[runlim] sample:		528.99 time, 260.01 real, 530 MB, 2.19 load
[runlim] sample:		548.99 time, 270.01 real, 530 MB, 2.16 load

Num labels used: 18
Current incumbent solution: {16, 30, 58, 100, 142, 254, 268, 296, 338, 380, 414, 456, 484, 554, 652, 694, 722, 792}}
Time taken: 277.40s
      0     0       12.0000  1221       18.0000     Cuts: 306   104736   33.33%

Num labels used: 18
Current incumbent solution: {16, 30, 58, 100, 142, 254, 268, 296, 338, 380, 414, 456, 484, 554, 652, 694, 722, 792}}
Time taken: 277.41s
[runlim] sample:		568.99 time, 280.01 real, 545 MB, 2.22 load
[runlim] sample:		588.99 time, 290.01 real, 551 MB, 2.19 load
[runlim] sample:		608.98 time, 300.01 real, 551 MB, 2.16 load
[runlim] sample:		628.98 time, 310.01 real, 551 MB, 2.13 load
[runlim] sample:		648.98 time, 320.01 real, 551 MB, 2.11 load
[runlim] sample:		668.97 time, 330.01 real, 551 MB, 2.09 load
[runlim] sample:		688.97 time, 340.01 real, 551 MB, 2.08 load
[runlim] sample:		708.96 time, 350.01 real, 551 MB, 2.07 load
[runlim] sample:		728.96 time, 360.01 real, 551 MB, 2.06 load
[runlim] sample:		748.95 time, 370.01 real, 551 MB, 2.13 load
[runlim] sample:		768.95 time, 380.01 real, 551 MB, 2.11 load
[runlim] sample:		788.95 time, 390.01 real, 551 MB, 2.09 load
[runlim] sample:		808.94 time, 400.01 real, 551 MB, 2.08 load
[runlim] sample:		828.94 time, 410.01 real, 551 MB, 2.06 load
[runlim] sample:		848.93 time, 420.01 real, 551 MB, 2.05 load
[runlim] sample:		868.93 time, 430.01 real, 551 MB, 2.04 load
[runlim] sample:		888.92 time, 440.01 real, 551 MB, 2.04 load
[runlim] sample:		908.92 time, 450.01 real, 551 MB, 2.03 load
[runlim] sample:		928.91 time, 460.01 real, 551 MB, 2.03 load
[runlim] sample:		948.91 time, 470.01 real, 551 MB, 2.02 load
[runlim] sample:		968.90 time, 480.01 real, 551 MB, 2.02 load
[runlim] sample:		988.90 time, 490.01 real, 551 MB, 2.01 load
[runlim] sample:		1008.90 time, 500.01 real, 551 MB, 2.01 load
[runlim] sample:		1028.89 time, 510.01 real, 551 MB, 2.01 load
[runlim] sample:		1048.89 time, 520.01 real, 551 MB, 2.01 load
[runlim] sample:		1068.88 time, 530.01 real, 551 MB, 2.15 load
[runlim] sample:		1088.88 time, 540.01 real, 551 MB, 2.21 load
[runlim] sample:		1108.88 time, 550.01 real, 551 MB, 2.25 load
[runlim] sample:		1128.87 time, 560.01 real, 551 MB, 2.21 load
[runlim] sample:		1148.87 time, 570.01 real, 551 MB, 2.18 load
[runlim] sample:		1168.87 time, 580.01 real, 551 MB, 2.15 load
[runlim] sample:		1188.86 time, 590.01 real, 551 MB, 2.13 load
[runlim] sample:		1208.86 time, 600.01 real, 551 MB, 2.11 load
[runlim] end:			Thu Mar 26 05:45:17 2026
[runlim] status:		out of time
[runlim] result:		2
[runlim] children:		1
[runlim] processes:		2
[runlim] real:			601.06 seconds
[runlim] time:			1208.86 seconds
[runlim] space:			551 MB
[runlim] load:			10.96 maximum
[runlim] samples:		6000
